22
3 55 43 7 
3 36 41 31 
3 20 4 32 
2 56 37 
2 16 14 
3 34 44 30 
3 8 59 21 
3 38 22 39 
3 26 40 46 
2 35 51 
3 47 25 48 
3 19 17 57 
3 24 18 52 
3 9 2 54 
3 5 49 58 
3 23 29 42 
2 28 6 
3 15 45 3 
2 33 10 
3 60 1 13 
2 53 12 
3 50 27 11 
